proyfinal/src/viki/013/andrea/andrea-localstore/experimentInOfficeAgust.take6/worker_6/f8e3048e-0d8d-423a-8b7a-ce03e593372a.als.cnf.out
Reading from standard input... Use '--help' for help.
============================[ Problem Statistics ]=============================
|                                                                             |
|  Number of variables:         87638                                         |
|  Number of clauses:          161767                                         |
|  Parse time:                   0.03 s                                       |
|                                                                             |
============================[ Search Statistics ]==============================
| Conflicts |          ORIGINAL         |          LEARNT          | Progress |
|           |    Vars  Clauses Literals |    Limit  Clauses Lit/Cl |          |
===============================================================================
|       100 |   63195   108086   270293 |    39631      100     30 | 27.891 % |
|       250 |   63195   108086   270293 |    43594      250     81 | 27.891 % |
|       475 |   63195   108086   270293 |    47954      475    111 | 27.891 % |
|       812 |   63195   108086   270293 |    52749      812    105 | 27.891 % |
|      1318 |   63195   108086   270293 |    58024     1318    100 | 27.891 % |
|      2077 |   63195   108086   270293 |    63826     2077    103 | 27.891 % |
|      3216 |   63195   108086   270293 |    70209     3216    116 | 27.891 % |
|      4924 |   63195   108086   270293 |    77230     4924     95 | 27.891 % |
|      7486 |   63186   108053   270209 |    84953     7481     88 | 27.901 % |
|     11330 |   47112    60010   151994 |    93449     9484     79 | 46.242 % |
===============================================================================
restarts              : 49
conflicts             : 11472          (5721 /sec)
decisions             : 33843          (0.00 % random) (16877 /sec)
propagations          : 19822915       (9885104 /sec)
conflict literals     : 891070         (54.44 % deleted)
Memory used           : 24.33 MB
CPU time              : 2.00533 s

UNSATISFIABLE
